13 69 52 76 12 16 37 20 84 0 6 46 28 58 90 26 66 11 81 27 15 68 41 95 49 59 14 19 24 8 38 67 30 73 31 17 55 47 87 57 50 64 9 5 77 40 85 54 91 71 7 92 35 43 62 61 99 25 29 70 72 44 63 22 23 82 79 88 83 74 4 80 89 93 75 10 96 51 21 32 18 45 97 56 39 3 42 1 78 94 65 53 33 60 98 34 86 36 48 2